Route #1: 21 85 54 13 40 31 63 57 29
Route #2: 82 94 64 105 69 17 2 83 77 101
Route #3: 45 100 53 103 28 93 43 96
Route #4: 97 49 99 11 74 34 72
Route #5: 5 15 76 87 60 51 44
Route #6: 67 48 8 36 91 88 58 14
Route #7: 7 75 84 9 12 104 1
Route #8: 62 26 90 24 102 92 52
Route #9: 33 22
Route #10: 78 19 27 37 79 71 46 66
Route #11: 86 18 41 10 16 20 56
Route #12: 95 59 38 42 3 23 55 32 73
Route #13: 35 89 30 98 4 65 80 47 68
Route #14: 25 39 50 81 6 70 61
Cost 26385
